presolving:
(round 1, fast)       657 del vars, 0 del conss, 0 add conss, 0 chg bounds, 0 chg sides, 0 chg coeffs, 0 upgd conss, 0 impls, 216810 clqs
(round 2, exhaustive) 657 del vars, 0 del conss, 0 add conss, 0 chg bounds, 0 chg sides, 0 chg coeffs, 216810 upgd conss, 0 impls, 216810 clqs
   (17.0s) probing: 51/430992 (0.0%) - 0 fixings, 0 aggregations, 0 implications, 0 bound changes
   (17.0s) probing aborted: 50/50 successive totally useless probings
   Deactivated symmetry handling methods, since SCIP was built without symmetry detector (SYM=none).
presolving (3 rounds: 3 fast, 2 medium, 2 exhaustive):
 657 deleted vars, 0 deleted constraints, 0 added constraints, 0 tightened bounds, 0 added holes, 0 changed sides, 0 changed coefficients
 0 implications, 216810 cliques
presolved problem has 430992 variables (430992 bin, 0 int, 0 impl, 0 cont) and 216810 constraints
 216810 constraints of type <setppc>
Presolving Time: 16.00

 time | node  | left  |LP iter|LP it/n|mem/heur|mdpt |vars |cons |rows |cuts |sepa|confs|strbr|  dualbound   | primalbound  |  gap   | compl. 
p24.0s|     1 |     0 |     0 |     - |  clique|   0 | 430k| 216k|1314 |   0 |  0 |   0 |   0 | 0.000000e+00 | 6.217640e+04 |    Inf | unknown
 55.0s|     1 |     0 |  1106 |     - |  2573M |   0 | 430k| 216k|1314 |   0 |  0 |  11 |   0 | 4.056050e+04 | 6.217640e+04 |  53.29%| unknown
 57.0s|     1 |     0 |  1827 |     - |  2574M |   0 | 430k| 216k|1574 | 260 |  1 |  11 |   0 | 4.640517e+04 | 6.217640e+04 |  33.99%| unknown
 67.0s|     1 |     0 |  1907 |     - |  2678M |   0 | 430k| 216k|1609 | 295 |  2 |  11 |   0 | 4.663666e+04 | 6.217640e+04 |  33.32%| unknown
 80.0s|     1 |     0 |  1928 |     - |  2725M |   0 | 430k| 216k|1612 | 298 |  3 |  11 |   0 | 4.666191e+04 | 6.217640e+04 |  33.25%| unknown
 92.0s|     1 |     0 |  1938 |     - |  2727M |   0 | 430k| 216k|1619 | 305 |  4 |  11 |   0 | 4.666191e+04 | 6.217640e+04 |  33.25%| unknown
  106s|     1 |     0 |  1972 |     - |  2733M |   0 | 430k| 216k|1640 | 326 |  5 |  11 |   0 | 4.669988e+04 | 6.217640e+04 |  33.14%| unknown
  122s|     1 |     0 |  1986 |     - |  2814M |   0 | 430k| 216k|1651 | 337 |  6 |  11 |   0 | 4.670137e+04 | 6.217640e+04 |  33.14%| unknown
  139s|     1 |     0 |  2027 |     - |  2827M |   0 | 430k| 216k|1670 | 356 |  7 |  11 |   0 | 4.675712e+04 | 6.217640e+04 |  32.98%| unknown
  154s|     1 |     0 |  2079 |     - |  2871M |   0 | 430k| 216k|1709 | 395 |  8 |  11 |   0 | 4.683506e+04 | 6.217640e+04 |  32.76%| unknown
  164s|     1 |     0 |  2102 |     - |  2885M |   0 | 430k| 216k|1722 | 408 |  9 |  11 |   0 | 4.686330e+04 | 6.217640e+04 |  32.68%| unknown
  175s|     1 |     0 |  2170 |     - |  2907M |   0 | 430k| 216k|1771 | 457 | 10 |  11 |   0 | 4.695378e+04 | 6.217640e+04 |  32.42%| unknown
  186s|     1 |     0 |  2237 |     - |  2956M |   0 | 430k| 216k|1724 | 483 | 11 |  11 |   0 | 4.700837e+04 | 6.217640e+04 |  32.27%| unknown
  192s|     1 |     0 |  2269 |     - |  3007M |   0 | 430k| 216k|1742 | 501 | 12 |  11 |   0 | 4.702473e+04 | 6.217640e+04 |  32.22%| unknown
  197s|     1 |     0 |  2289 |     - |  3014M |   0 | 430k| 216k|1749 | 508 | 13 |  11 |   0 | 4.703093e+04 | 6.217640e+04 |  32.20%| unknown
 time | node  | left  |LP iter|LP it/n|mem/heur|mdpt |vars |cons |rows |cuts |sepa|confs|strbr|  dualbound   | primalbound  |  gap   | compl. 
  202s|     1 |     0 |  2291 |     - |  3016M |   0 | 430k| 216k|1753 | 512 | 14 |  11 |   0 | 4.703887e+04 | 6.217640e+04 |  32.18%| unknown
  207s|     1 |     0 |  2350 |     - |  3022M |   0 | 430k| 216k|1764 | 523 | 15 |  11 |   0 | 4.708065e+04 | 6.217640e+04 |  32.06%| unknown
  211s|     1 |     0 |  2368 |     - |  3032M |   0 | 430k| 216k|1769 | 528 | 16 |  11 |   0 | 4.708589e+04 | 6.217640e+04 |  32.05%| unknown
  217s|     1 |     0 |  2378 |     - |  3034M |   0 | 430k| 216k|1754 | 531 | 17 |  11 |   0 | 4.708800e+04 | 6.217640e+04 |  32.04%| unknown
  219s|     1 |     0 |  2385 |     - |  3038M |   0 | 430k| 216k|1757 | 534 | 18 |  11 |   0 | 4.708871e+04 | 6.217640e+04 |  32.04%| unknown
  222s|     1 |     0 |  2388 |     - |  3038M |   0 | 430k| 216k|1758 | 535 | 19 |  11 |   0 | 4.708871e+04 | 6.217640e+04 |  32.04%| unknown
  224s|     1 |     0 |  2394 |     - |  3039M |   0 | 430k| 216k|1761 | 538 | 20 |  11 |   0 | 4.708916e+04 | 6.217640e+04 |  32.04%| unknown
  227s|     1 |     0 |  2396 |     - |  3041M |   0 | 430k| 216k|1763 | 540 | 21 |  11 |   0 | 4.708916e+04 | 6.217640e+04 |  32.04%| unknown
  390s|     1 |     2 |  8589 |     - |  3081M |   0 | 430k| 216k|1763 | 540 | 23 |  11 |  29 | 4.709243e+04 | 6.217640e+04 |  32.03%| unknown
*1094s|    31 |    24 |  9764 | 245.6 |strongbr|  22 | 430k| 216k|1657 | 583 |  1 |  11 | 709 | 4.709306e+04 | 4.741264e+04 |   0.68%| unknown
*1102s|    32 |    21 |  9768 | 237.8 |strongbr|  22 | 430k| 216k|1657 | 583 |  2 |  36 | 715 | 4.709306e+04 | 4.739950e+04 |   0.65%| unknown
* 195m|    50 |    27 | 10233 | 159.9 |strongbr|  23 | 430k| 217k|1656 | 589 |  2 | 311 |1053 | 4.709306e+04 | 4.737453e+04 |   0.60%| unknown
* 195m|    51 |    26 | 10235 | 156.8 |strongbr|  23 | 430k| 217k|1656 | 589 |  2 | 368 |1063 | 4.709306e+04 | 4.737406e+04 |   0.60%| unknown
* 197m|    58 |    28 | 10441 | 141.1 |    LP  |  23 | 430k| 217k|1658 | 592 |  3 | 424 |1178 | 4.709306e+04 | 4.736291e+04 |   0.57%| unknown
* 198m|    63 |    28 | 10528 | 131.2 |strongbr|  23 | 430k| 217k|1659 | 596 |  7 | 440 |1209 | 4.709306e+04 | 4.735647e+04 |   0.56%| unknown
 time | node  | left  |LP iter|LP it/n|mem/heur|mdpt |vars |cons |rows |cuts |sepa|confs|strbr|  dualbound   | primalbound  |  gap   | compl. 
r 198m|    64 |    19 | 10533 | 129.2 |rounding|  23 | 430k| 217k|1659 | 596 |  0 | 453 |1214 | 4.709306e+04 | 4.733003e+04 |   0.50%| unknown
* 202m|    79 |    27 | 10886 | 108.8 |strongbr|  23 | 430k| 217k|1645 | 608 |  2 | 510 |1444 | 4.709306e+04 | 4.729933e+04 |   0.44%| unknown
* 207m|    96 |    33 | 11464 |  95.5 |strongbr|  23 | 430k| 217k|1644 | 616 |  1 | 599 |1746 | 4.709525e+04 | 4.726483e+04 |   0.36%| unknown
  208m|   100 |    35 | 11681 |  93.8 |  3430M |  23 | 430k| 217k|1644 | 616 |  2 | 689 |1842 | 4.709525e+04 | 4.726483e+04 |   0.36%| unknown
* 217m|   127 |    40 | 12452 |  79.8 |strongbr|  23 | 430k| 217k|1644 | 637 |  2 | 886 |2353 | 4.709530e+04 | 4.726110e+04 |   0.35%| unknown
* 220m|   136 |    38 | 12771 |  76.9 |strongbr|  23 | 430k| 217k|1645 | 638 |  1 | 982 |2566 | 4.709530e+04 | 4.724955e+04 |   0.33%| unknown
* 221m|   138 |    33 | 12976 |  77.2 |    LP  |  23 | 430k| 217k|1646 | 639 |  2 |1040 |2617 | 4.709530e+04 | 4.724649e+04 |   0.32%| unknown
* 224m|   148 |    32 | 13188 |  73.4 |strongbr|  23 | 430k| 217k|1635 | 643 |  2 |1083 |2774 | 4.709530e+04 | 4.722351e+04 |   0.27%| unknown
* 224m|   149 |    31 | 13226 |  73.2 |strongbr|  23 | 430k| 217k|1640 | 648 | 10 |1083 |2781 | 4.709530e+04 | 4.722068e+04 |   0.27%| unknown
* 224m|   149 |    30 | 13226 |  73.2 |strongbr|  23 | 430k| 217k|1640 | 648 | 10 |1094 |2784 | 4.709530e+04 | 4.721418e+04 |   0.25%| unknown
* 227m|   165 |    39 | 13608 |  68.4 |strongbr|  23 | 430k| 217k|1640 | 657 |  1 |1114 |2981 | 4.709530e+04 | 4.720370e+04 |   0.23%| unknown
* 227m|   166 |    38 | 13614 |  68.0 |strongbr|  23 | 430k| 217k|1640 | 657 |  2 |1114 |2982 | 4.709530e+04 | 4.719229e+04 |   0.21%| unknown
* 228m|   173 |    37 | 13813 |  66.4 |strongbr|  23 | 430k| 217k|1641 | 661 |  4 |1138 |3074 | 4.709530e+04 | 4.718311e+04 |   0.19%|   5.70%
* 228m|   173 |    37 | 13814 |  66.4 |strongbr|  23 | 430k| 217k|1641 | 661 |  6 |1138 |3076 | 4.709530e+04 | 4.718261e+04 |   0.19%|   5.70%
* 228m|   174 |    30 | 13826 |  66.1 |strongbr|  23 | 430k| 217k|1641 | 661 |  3 |1158 |3085 | 4.709530e+04 | 4.717170e+04 |   0.16%|   6.22%
 time | node  | left  |LP iter|LP it/n|mem/heur|mdpt |vars |cons |rows |cuts |sepa|confs|strbr|  dualbound   | primalbound  |  gap   | compl. 
* 228m|   174 |    30 | 13827 |  66.1 |strongbr|  23 | 430k| 217k|1641 | 661 |  5 |1158 |3086 | 4.709530e+04 | 4.717121e+04 |   0.16%|   6.22%
* 231m|   192 |    28 | 14285 |  62.2 |    LP  |  23 | 430k| 217k|1641 | 686 |  2 |1438 |3252 | 4.709530e+04 | 4.717085e+04 |   0.16%|   9.19%
* 231m|   193 |    25 | 14289 |  61.9 |    LP  |  23 | 430k| 217k|1641 | 686 |  2 |1438 |3252 | 4.709530e+04 | 4.715945e+04 |   0.14%|  10.91%
  233m|   200 |    26 | 14440 |  60.5 |  3436M |  23 | 430k| 217k|1641 | 686 |  2 |1458 |3389 | 4.709530e+04 | 4.715945e+04 |   0.14%|  11.36%
* 233m|   207 |    20 | 14695 |  59.7 |strongbr|  23 | 430k| 218k|1646 | 712 |  2 |1620 |3441 | 4.709530e+04 | 4.714950e+04 |   0.12%|  12.95%
* 233m|   207 |    20 | 14695 |  59.7 |strongbr|  23 | 430k| 218k|1646 | 712 |  2 |1620 |3442 | 4.709530e+04 | 4.714858e+04 |   0.11%|  12.95%
r 234m|   208 |    21 | 14700 |  59.4 |rounding|  23 | 430k| 218k|1637 | 712 |  0 |1620 |3443 | 4.709530e+04 | 4.714519e+04 |   0.11%|  12.95%
* 234m|   208 |    19 | 14702 |  59.4 |    LP  |  23 | 430k| 218k|1637 | 712 |  4 |1620 |3444 | 4.709530e+04 | 4.713329e+04 |   0.08%|  15.25%
* 234m|   209 |    16 | 14704 |  59.2 |    LP  |  23 | 430k| 218k|1637 | 712 |  2 |1620 |3444 | 4.709530e+04 | 4.712188e+04 |   0.06%|  16.18%
  245m|   300 |    20 | 17642 |  51.0 |  3479M |  23 | 430k| 218k|1651 | 771 |  4 |2084 |4193 | 4.709541e+04 | 4.712188e+04 |   0.06%|  28.60%
  252m|   400 |    19 | 20842 |  46.2 |  3507M |  23 | 430k| 218k|1636 | 885 |  3 |2438 |4516 | 4.709541e+04 | 4.712188e+04 |   0.06%|  42.53%
  256m|   500 |     9 | 23865 |  43.0 |  3508M |  23 | 430k| 218k|1637 | 979 |  2 |2698 |4690 | 4.709601e+04 | 4.712188e+04 |   0.05%|  68.96%

SCIP Status        : problem is solved [optimal solution found]
Solving Time (sec) : 15532.00
Solving Nodes      : 583
Primal Bound       : +4.71218826608276e+04 (29 solutions)
Dual Bound         : +4.71218826608276e+04
Gap                : 0.00 %
Trying to solve problem with DFJ2 version 2.0 Method...
15532.0
Route:  [[0, 2], [1, 0], [2, 1], [3, 4], [4, 5], [5, 6], [6, 78], [7, 8], [8, 9], [9, 7], [10, 3], [11, 10], [12, 11], [13, 17], [14, 21], [15, 14], [16, 20], [17, 16], [18, 13], [19, 18], [20, 28], [21, 24], [22, 445], [23, 25], [24, 12], [25, 26], [26, 27], [27, 30], [28, 15], [29, 22], [30, 29], [31, 37], [32, 35], [33, 32], [34, 469], [35, 33], [36, 39], [37, 34], [38, 42], [39, 41], [40, 50], [41, 36], [42, 46], [43, 38], [44, 45], [45, 63], [46, 58], [47, 43], [48, 52], [49, 44], [50, 54], [51, 470], [52, 57], [53, 60], [54, 49], [55, 48], [56, 62], [57, 59], [58, 70], [59, 69], [60, 64], [61, 47], [62, 51], [63, 68], [64, 53], [65, 40], [66, 61], [67, 56], [68, 73], [69, 55], [70, 90], [71, 66], [72, 65], [73, 77], [74, 93], [75, 80], [76, 67], [77, 84], [78, 79], [79, 101], [80, 71], [81, 75], [82, 94], [83, 76], [84, 74], [85, 72], [86, 99], [87, 95], [88, 87], [89, 83], [90, 104], [91, 97], [92, 86], [93, 91], [94, 89], [95, 88], [96, 82], [97, 98], [98, 115], [99, 92], [100, 107], [101, 116], [102, 114], [103, 85], [104, 105], [105, 121], [106, 81], [107, 111], [108, 134], [109, 108], [110, 96], [111, 100], [112, 122], [113, 119], [114, 118], [115, 132], [116, 128], [117, 141], [118, 102], [119, 103], [120, 113], [121, 112], [122, 106], [123, 110], [124, 127], [125, 506], [126, 507], [127, 145], [128, 130], [129, 138], [130, 137], [131, 117], [132, 140], [133, 508], [134, 146], [135, 125], [136, 133], [137, 142], [138, 131], [139, 120], [140, 155], [141, 163], [142, 129], [143, 151], [144, 109], [145, 144], [146, 123], [147, 149], [148, 139], [149, 154], [150, 166], [151, 167], [152, 135], [153, 143], [154, 147], [155, 168], [156, 164], [157, 169], [158, 150], [159, 182], [160, 174], [161, 148], [162, 190], [163, 156], [164, 162], [165, 157], [166, 158], [167, 153], [168, 172], [169, 171], [170, 161], [171, 170], [172, 178], [173, 183], [174, 193], [175, 152], [176, 192], [177, 184], [178, 185], [179, 177], [180, 181], [181, 187], [182, 189], [183, 194], [184, 179], [185, 195], [186, 180], [187, 165], [188, 176], [189, 203], [190, 196], [191, 186], [192, 188], [193, 160], [194, 173], [195, 191], [196, 206], [197, 198], [198, 199], [199, 197], [200, 201], [201, 202], [202, 570], [203, 205], [204, 215], [205, 212], [206, 220], [207, 224], [208, 207], [209, 217], [210, 237], [211, 175], [212, 216], [213, 200], [214, 208], [215, 225], [216, 222], [217, 218], [218, 209], [219, 214], [220, 230], [221, 232], [222, 245], [223, 228], [224, 226], [225, 204], [226, 242], [227, 219], [228, 243], [229, 580], [230, 239], [231, 235], [232, 241], [233, 211], [234, 240], [235, 210], [236, 254], [237, 269], [238, 262], [239, 238], [240, 264], [241, 221], [242, 250], [243, 223], [244, 233], [245, 265], [246, 229], [247, 251], [248, 236], [249, 272], [250, 255], [251, 260], [252, 227], [253, 234], [254, 248], [255, 259], [256, 244], [257, 246], [258, 266], [259, 284], [260, 247], [261, 253], [262, 289], [263, 271], [264, 263], [265, 273], [266, 280], [267, 256], [268, 252], [269, 231], [270, 268], [271, 261], [272, 291], [273, 258], [274, 283], [275, 294], [276, 270], [277, 249], [278, 285], [279, 257], [280, 297], [281, 278], [282, 267], [283, 286], [284, 304], [285, 282], [286, 274], [287, 275], [288, 299], [289, 290], [290, 298], [291, 277], [292, 287], [293, 288], [294, 292], [295, 301], [296, 302], [297, 296], [298, 307], [299, 303], [300, 276], [301, 281], [302, 295], [303, 293], [304, 311], [305, 318], [306, 592], [307, 317], [308, 309], [309, 321], [310, 300], [311, 327], [312, 305], [313, 314], [314, 315], [315, 316], [316, 329], [317, 322], [318, 312], [319, 336], [320, 310], [321, 325], [322, 335], [323, 340], [324, 323], [325, 349], [326, 320], [327, 333], [328, 313], [329, 332], [330, 319], [331, 356], [332, 338], [333, 357], [334, 324], [335, 345], [336, 343], [337, 306], [338, 344], [339, 328], [340, 346], [341, 347], [342, 308], [343, 330], [344, 353], [345, 341], [346, 334], [347, 361], [348, 342], [349, 364], [350, 326], [351, 358], [352, 359], [353, 362], [354, 360], [355, 331], [356, 337], [357, 351], [358, 373], [359, 363], [360, 355], [361, 372], [362, 367], [363, 352], [364, 348], [365, 369], [366, 339], [367, 382], [368, 366], [369, 350], [370, 397], [371, 390], [372, 391], [373, 378], [374, 368], [375, 354], [376, 374], [377, 365], [378, 396], [379, 376], [380, 375], [381, 383], [382, 392], [383, 380], [384, 379], [385, 394], [386, 377], [387, 386], [388, 370], [389, 400], [390, 399], [391, 398], [392, 384], [393, 381], [394, 403], [395, 385], [396, 395], [397, 388], [398, 389], [399, 371], [400, 404], [401, 414], [402, 410], [403, 407], [404, 415], [405, 401], [406, 402], [407, 412], [408, 426], [409, 416], [410, 419], [411, 428], [412, 433], [413, 406], [414, 405], [415, 421], [416, 438], [417, 411], [418, 393], [419, 424], [420, 409], [421, 439], [422, 436], [423, 432], [424, 425], [425, 413], [426, 427], [427, 624], [428, 418], [429, 417], [430, 387], [431, 423], [432, 431], [433, 434], [434, 429], [435, 430], [436, 435], [437, 420], [438, 437], [439, 422], [440, 23], [441, 440], [442, 446], [443, 441], [444, 19], [445, 444], [446, 447], [447, 443], [448, 449], [449, 453], [450, 448], [451, 452], [452, 450], [453, 458], [454, 451], [455, 473], [456, 457], [457, 459], [458, 464], [459, 460], [460, 455], [461, 454], [462, 463], [463, 442], [464, 468], [465, 461], [466, 462], [467, 465], [468, 466], [469, 31], [470, 467], [471, 472], [472, 482], [473, 456], [474, 475], [475, 476], [476, 477], [477, 479], [478, 515], [479, 478], [480, 485], [481, 480], [482, 483], [483, 471], [484, 489], [485, 486], [486, 490], [487, 481], [488, 487], [489, 492], [490, 496], [491, 494], [492, 495], [493, 488], [494, 497], [495, 500], [496, 498], [497, 491], [498, 493], [499, 504], [500, 501], [501, 503], [502, 499], [503, 502], [504, 126], [505, 124], [506, 505], [507, 136], [508, 509], [509, 510], [510, 159], [511, 559], [512, 528], [513, 512], [514, 484], [515, 514], [516, 517], [517, 518], [518, 516], [519, 520], [520, 474], [521, 519], [522, 525], [523, 533], [524, 522], [525, 526], [526, 527], [527, 521], [528, 513], [529, 523], [530, 524], [531, 529], [532, 531], [533, 530], [534, 535], [535, 532], [536, 534], [537, 536], [538, 537], [539, 538], [540, 539], [541, 540], [542, 541], [543, 542], [544, 545], [545, 546], [546, 552], [547, 544], [548, 547], [549, 543], [550, 549], [551, 550], [552, 628], [553, 548], [554, 558], [555, 554], [556, 551], [557, 555], [558, 553], [559, 556], [560, 563], [561, 564], [562, 561], [563, 565], [564, 560], [565, 566], [566, 557], [567, 511], [568, 562], [569, 568], [570, 567], [571, 569], [572, 571], [573, 574], [574, 578], [575, 656], [576, 577], [577, 573], [578, 582], [579, 575], [580, 213], [581, 586], [582, 581], [583, 576], [584, 583], [585, 584], [586, 589], [587, 585], [588, 587], [589, 598], [590, 593], [591, 596], [592, 279], [593, 599], [594, 588], [595, 608], [596, 597], [597, 591], [598, 600], [599, 590], [600, 601], [601, 595], [602, 594], [603, 604], [604, 609], [605, 606], [606, 610], [607, 605], [608, 613], [609, 603], [610, 607], [611, 602], [612, 611], [613, 615], [614, 623], [615, 616], [616, 617], [617, 618], [618, 620], [619, 612], [620, 622], [621, 614], [622, 408], [623, 621], [624, 625], [625, 619], [626, 572], [627, 654], [628, 651], [629, 630], [630, 631], [631, 632], [632, 629], [633, 634], [634, 635], [635, 633], [636, 638], [637, 636], [638, 639], [639, 637], [640, 641], [641, 642], [642, 640], [643, 645], [644, 643], [645, 646], [646, 644], [647, 648], [648, 652], [649, 647], [650, 649], [651, 650], [652, 653], [653, 627], [654, 655], [655, 626], [656, 579]]
A Solution was found
Objective value: 47121.9
Problem solved in 25526 iterations
Problem solved in 583 nodes
Final Route Configuration succesfully created at:
data/routes/d657.csv
